33 13
61 28
39 122
9 12
36 85
46 23
25 26
11 138
35 7
64 64
24 30
16 131
9 37
38 16
30 21
42 16
51 43
95 26
76 60
14 25
79 39
20 23
9 53
49 107
18 103
62 54
16 91
21 124
46 59
73 37
19 171
83 14
6 134
35 147
13 126
11 16
25 58
20 103
30 78
10 84
18 194
23 18
50 12
81 24
14 146
60 41
8 95
41 19
13 56
88 4
